NAME : data_22
TYPE : TSP
COMMENT : Subset of xqf131 with 22 nodes
DIMENSION : 22
EDGE_WEIGHT_TYPE : EUC_2D
NODE_COORD_SECTION
1 0 13
2 0 26
3 0 27
4 0 39
5 2 0
6 5 13
7 5 19
8 5 25
9 5 31
10 5 37
11 5 43
12 5 8
13 8 0
14 9 10
15 10 10
16 11 10
17 12 10
18 12 5
19 15 13
20 15 19
21 15 25
22 15 31
EOF
